NAME: cuum110.tsp
TYPE: TSP
COMMENT: User-generated TSP file
DIMENSION: 110
EDGE_WEIGHT_TYPE: EUC_2D
NODE_COORD_SECTION
1 60.0 28.0
2 64.0 61.0
3 10.0 72.0
4 40.0 13.0
5 2.0 39.0
6 18.0 9.0
7 63.0 36.0
8 55.0 23.0
9 52.0 110.0
10 81.0 45.0
11 52.0 62.0
12 36.0 26.0
13 11.0 86.0
14 5.0 99.0
15 23.0 93.0
16 52.0 95.0
17 96.0 31.0
18 15.0 58.0
19 26.0 66.0
20 94.0 8.0
21 45.0 8.0
22 63.0 86.0
23 81.0 37.0
24 34.0 45.0
25 103.0 82.0
26 49.0 27.0
27 45.0 36.0
28 22.0 96.0
29 97.0 103.0
30 68.0 71.0
31 71.0 33.0
32 55.0 46.0
33 49.0 35.0
34 65.0 53.0
35 37.0 32.0
36 52.0 69.0
37 17.0 27.0
38 44.0 36.0
39 7.0 95.0
40 81.0 65.0
41 6.0 109.0
42 32.0 13.0
43 96.0 11.0
44 99.0 69.0
45 40.0 8.0
46 48.0 24.0
47 11.0 94.0
48 57.0 74.0
49 14.0 55.0
50 35.0 57.0
51 49.0 58.0
52 1.0 3.0
53 82.0 35.0
54 3.0 60.0
55 103.0 89.0
56 34.0 20.0
57 82.0 45.0
58 24.0 90.0
59 88.0 99.0
60 11.0 9.0
61 87.0 100.0
62 46.0 25.0
63 7.0 19.0
64 59.0 18.0
65 13.0 34.0
66 15.0 54.0
67 62.0 34.0
68 39.0 99.0
69 53.0 90.0
70 72.0 68.0
71 15.0 77.0
72 67.0 100.0
73 71.0 22.0
74 51.0 46.0
75 95.0 58.0
76 18.0 75.0
77 72.0 2.0
78 8.0 68.0
79 87.0 106.0
80 39.0 44.0
81 1.0 8.0
82 75.0 87.0
83 98.0 79.0
84 53.0 7.0
85 12.0 42.0
86 109.0 31.0
87 37.0 5.0
88 93.0 6.0
89 100.0 82.0
90 48.0 93.0
91 71.0 74.0
92 29.0 88.0
93 49.0 67.0
94 63.0 103.0
95 8.0 6.0
96 36.0 21.0
97 3.0 67.0
98 7.0 28.0
99 50.0 4.0
100 45.0 75.0
101 70.0 71.0
102 83.0 100.0
103 71.0 61.0
104 24.0 39.0
105 22.0 82.0
106 22.0 29.0
107 12.0 2.0
108 8.0 98.0
109 44.0 76.0
110 39.0 64.0
EOF





